21
[-1, 70, 86, 0, 52, 47, 31, 49, 0, 22, 0, 38, 0, 0, 0, 0, 64, 0, 0, 7, 0, 
70, -1, 0, 0, 44, 22, 0, 45, 34, 0, 27, 21, 0, 33, 0, 0, 0, 0, 4, 26, 21, 
86, 0, -1, 0, 67, 0, 30, 0, 89, 0, 13, 0, 0, 0, 0, 58, 35, 67, 47, 0, 61, 
0, 0, 0, -1, 52, 67, 0, 56, 0, 18, 0, 63, 0, 0, 75, 40, 68, 19, 0, 0, 0, 
52, 44, 67, 52, -1, 80, 0, 26, 0, 0, 0, 0, 83, 0, 44, 0, 0, 0, 55, 0, 0, 
47, 22, 0, 67, 80, -1, 62, 0, 66, 37, 67, 0, 40, 43, 7, 0, 12, 0, 0, 0, 21, 
31, 0, 30, 0, 0, 62, -1, 0, 96, 46, 27, 0, 0, 0, 56, 32, 22, 30, 0, 64, 79, 
49, 45, 0, 56, 26, 0, 0, -1, 0, 78, 44, 57, 48, 0, 76, 0, 0, 26, 21, 59, 35, 
0, 34, 89, 0, 0, 66, 96, 0, -1, 90, 0, 84, 0, 96, 0, 6, 0, 6, 0, 0, 78, 
22, 0, 0, 18, 0, 37, 46, 78, 90, -1, 0, 0, 0, 5, 0, 72, 0, 44, 0, 23, 0, 
0, 27, 13, 0, 0, 67, 27, 44, 0, 0, -1, 0, 34, 100, 0, 18, 60, 0, 0, 47, 0, 
38, 21, 0, 63, 0, 0, 0, 57, 84, 0, 0, -1, 26, 0, 71, 43, 57, 0, 24, 0, 0, 
0, 0, 0, 0, 83, 40, 0, 48, 0, 0, 34, 26, -1, 77, 0, 0, 0, 90, 0, 32, 0, 
0, 33, 0, 0, 0, 43, 0, 0, 96, 5, 100, 0, 77, -1, 0, 0, 0, 47, 0, 46, 0, 
0, 0, 0, 75, 44, 7, 56, 76, 0, 0, 0, 71, 0, 0, -1, 8, 65, 0, 0, 17, 0, 
0, 0, 58, 40, 0, 0, 32, 0, 6, 72, 18, 43, 0, 0, 8, -1, 0, 0, 35, 55, 0, 
64, 0, 35, 68, 0, 12, 22, 0, 0, 0, 60, 57, 0, 0, 65, 0, -1, 33, 63, 0, 77, 
0, 0, 67, 19, 0, 0, 30, 26, 6, 44, 0, 0, 90, 47, 0, 0, 33, -1, 32, 30, 0, 
0, 4, 47, 0, 55, 0, 0, 21, 0, 0, 0, 24, 0, 0, 0, 35, 63, 32, -1, 76, 22, 
7, 26, 0, 0, 0, 0, 64, 59, 0, 23, 47, 0, 32, 46, 17, 55, 0, 30, 76, -1, 71, 
0, 21, 61, 0, 0, 21, 79, 35, 78, 0, 0, 0, 0, 0, 0, 0, 77, 0, 22, 71, -1]